g9 10 1 0 10 20190616 0 4 0 244	# problem tp086
 5 10 1 0 0	# vars, constraints, objectives, ranges, eqns
 0 1	# nonlinear constraints, objectives
 0 0	# network constraints: nonlinear, linear
 0 5 0	# nonlinear vars in constraints, objectives, both
 0 0 0 1	# linear network variables; functions; arith, flags
 0 0 0 0 0	# discrete variables: binary, integer, nonlinear (b,c,o)
 37 5	# nonzeros in Jacobian, gradients
 0 0	# max name lengths: constraints, variables
 0 0 0 0 37	# common exprs: b,c,o,c1,o1
b
2 0
2 0
2 0
2 0
2 0
x5
0 0
1 0
2 0
3 0
4 1
r
2 -40
2 -2
2 -0.25
2 -4
2 -4
2 -1
2 -40
2 -60
2 5
2 1
C0
n0
C1
n0
C2
n0
C3
n0
C4
n0
C5
n0
C6
n0
C7
n0
C8
n0
C9
n0
V5 0 11
o2
o2
n30
v0
v0
V6 0 11
o2
o2
n-20
v1
v0
V7 0 11
o2
o2
n-10
v2
v0
V8 0 11
o2
o2
n32
v3
v0
V9 0 11
o2
o2
n-10
v4
v0
V10 0 11
o2
n4
o5
v0
n3
V11 0 11
o0
v5
o2
o2
n-20
v0
v1
V12 0 11
o0
v6
o2
o2
n39
v1
v1
V13 0 11
o0
v7
o2
o2
n-6
v2
v1
V14 0 11
o0
v8
o2
o2
n-31
v3
v1
V15 0 11
o0
v9
o2
o2
n32
v4
v1
V16 0 11
o0
v10
o2
n8
o5
v1
n3
V17 0 11
o0
v11
o2
o2
n-10
v0
v2
V18 0 11
o0
v12
o2
o2
n-6
v1
v2
V19 0 11
o0
v13
o2
o2
n10
v2
v2
V20 0 11
o0
v14
o2
o2
n-6
v3
v2
V21 0 11
o0
v15
o2
o2
n-10
v4
v2
V22 0 11
o0
v16
o2
n10
o5
v2
n3
V23 0 11
o0
v17
o2
o2
n32
v0
v3
V24 0 11
o0
v18
o2
o2
n-31
v1
v3
V25 0 11
o0
v19
o2
o2
n-6
v2
v3
V26 0 11
o0
v20
o2
o2
n39
v3
v3
V27 0 11
o0
v21
o2
o2
n-20
v4
v3
V28 0 11
o0
v22
o2
n6
o5
v3
n3
V29 0 11
o0
v23
o2
o2
n-10
v0
v4
V30 0 11
o0
v24
o2
o2
n32
v1
v4
V31 0 11
o0
v25
o2
o2
n-10
v2
v4
V32 0 11
o0
v26
o2
o2
n-20
v3
v4
V33 0 11
o0
v27
o2
o2
n30
v4
v4
V34 0 11
o0
v28
o2
n2
o5
v4
n3
V35 0 11
v29
V36 0 11
o0
v35
v30
V37 0 11
o0
v36
v31
V38 0 11
o0
v37
v32
V39 0 11
o0
v38
v33
V40 0 11
o0
v39
v34
V41 0 11
v40
O0 0
v41
k4
7
15
22
30
J0 3
0 -16
1 2
3 1
J1 3
1 -2
3 0.4
4 2
J2 2
0 -3.5
2 2
J3 3
1 -2
3 -4
4 -1
J4 4
1 -9
2 -2
3 1
4 -2.8
J5 2
0 2
2 -4
J6 5
0 -1
1 -1
2 -1
3 -1
4 -1
J7 5
0 -1
1 -2
2 -3
3 -2
4 -1
J8 5
0 1
1 2
2 3
3 4
4 5
J9 5
0 1
1 1
2 1
3 1
4 1
G0 5
0 -15
1 -27
2 -36
3 -18
4 -12
